12361 14639 1385
11614 14386 1434
13457 13543 1479
15130 12870 1283
13800 14200 1350
10269 14731 1292
12681 13319 1496
17840 9160 1165
16044 10956 1430
13595 12405 1495
17162 8838 1356
15185 11815 1459
17134 9866 1347
17979 6021 1072
11332 14668 1395
17596 9404 1295
10275 14725 1330
15288 11712 1456
16312 11688 1377
14205 12795 1479
12733 14267 1450
13786 13214 1480
13153 11847 1510
17809 8191 1219
15450 10550 1456
16442 11558 1346
16913 10087 1369
15491 12509 1431
14444 13556 1396
14390 11610 1489
16664 11336 1270
11941 14059 1476
